37522 40949 
35139 41076 
36616 41035 
37873 40753 
38670 40341 
37287 40961 
36737 41003 
38904 40196 
38876 40308 
36381 41047 
39658 39796 
40002 39483 
38660 40563 
39148 40111 
38926 40174 
38895 40266 
39652 39820 
37678 40799 
37825 40769 
38157 40639 
38669 40446 
38416 40601 
39198 40089 
39835 39655 
39959 39485 
39931 39597 
39678 39752 
38006 40705 
38425 40575 
38844 40311 
38213 40608 
39250 40038 
39485 39992 
39680 39708 
40166 39300 
41428 38220 
39709 39660 
39542 39832 
40887 38808 
41357 38334 
41459 38128 
41264 38412 
41694 37831 
40972 38590 
40144 39345 
40311 39257 
40737 38887 
40635 39093 
40723 39000 
40652 39058 
40918 38716 
41082 38477 
41153 38419 
41388 38242 
41623 37945 
41734 37127 
41759 37098 
40929 38592 
40428 39231 
39853 39605 
40516 39138 
39952 39513 
40109 39447 
41078 38557 
40459 39139 
40210 39298 
40843 38854 
41109 38465 
40914 38749 
